GLPSOL--GLPK LP/MIP Solver 5.0
Parameter(s) specified in the command line:
 --lp ../modeles/2_414.lp --log 2_414.log
Reading problem data from '../modeles/2_414.lp'...
837 rows, 1660 columns, 5802 non-zeros
828 integer variables, all of which are binary
2505 lines were read
GLPK Integer Optimizer 5.0
837 rows, 1660 columns, 5802 non-zeros
828 integer variables, all of which are binary
Preprocessing...
820 constraint coefficient(s) were reduced
837 rows, 1658 columns, 5800 non-zeros
828 integer variables, all of which are binary
Scaling...
 A: min|aij| =  9.335e-05  max|aij| =  4.000e+00  ratio =  4.285e+04
GM: min|aij| =  6.950e-02  max|aij| =  1.439e+01  ratio =  2.070e+02
EQ: min|aij| =  4.831e-03  max|aij| =  1.000e+00  ratio =  2.070e+02
2N: min|aij| =  3.906e-03  max|aij| =  1.761e+00  ratio =  4.507e+02
Constructing initial basis...
Size of triangular part is 837
Solving LP relaxation...
GLPK Simplex Optimizer 5.0
837 rows, 1658 columns, 5800 non-zeros
      0: obj =   4.000000000e+00 inf =   9.500e+00 (5)
     49: obj =   4.744319839e-01 inf =   0.000e+00 (0)
*   184: obj =  -1.414193697e+00 inf =   6.365e-16 (0)
OPTIMAL LP SOLUTION FOUND
Integer optimization begins...
Long-step dual simplex will be used
+   184: mip =     not found yet >=              -inf        (1; 0)
+   185: >>>>>  -1.414193697e+00 >=  -1.414193697e+00 < 0.1% (2; 0)
+   185: mip =  -1.414193697e+00 >=     tree is empty   0.0% (0; 3)
INTEGER OPTIMAL SOLUTION FOUND
Time used:   0.0 secs
Memory used: 2.4 Mb (2499292 bytes)
